NAME : TW_45_seed_None_id_4
TYPE : CVRPTW
DIMENSION : 11
EDGE_WEIGHT_TYPE : EUC_2D
CAPACITY : 25
SERVICE_TIME : 100
LATE_COEFF : 0
NODE_COORD_SECTION
1	937	385
2	878	650
3	699	516
4	834	515
5	302	75
6	630	370
7	739	62
8	102	180
9	160	34
10	461	643
11	473	451
DEMAND_SECTION
1	0
2	9
3	5
4	10
5	3
6	1
7	5
8	1
9	3
10	4
11	2
TIME_WINDOW_SECTION
1	0	10000
2	0	10000
3	0	10000
4	0	10000
5	0	10000
6	0	10000
7	0	10000
8	0	10000
9	0	10000
10	0	10000
11	0	10000
DEPOT_SECTION
1
-1
EOF
